
Log started (V20.1.0.0) Tue Aug  9 09:01:14 2022


Problem 'pp.lp' read.
Read time = 0.02 sec. (0.00 ticks)
Version identifier: 20.1.0.0 | 2020-11-10 | 9bedb6d68
Tried aggregator 1 time.
No LP presolve or aggregator reductions.
Presolve time = 0.00 sec. (0.00 ticks)
Initializing dual steep norms . . .

Iteration log . . .
Iteration:     1   Dual infeasibility =             1.125000

Dual simplex - Optimal:  Objective =  1.4000000000e+01
Solution time =    0.02 sec.  Iterations = 2 (2)
Deterministic time = 0.00 ticks  (0.31 ticks/sec)


Log started (V20.1.0.0) Tue Aug  9 09:05:35 2022


Problem 'pp.lp' read.
Read time = 0.00 sec. (0.00 ticks)
Version identifier: 20.1.0.0 | 2020-11-10 | 9bedb6d68
Tried aggregator 1 time.
LP Presolve eliminated 2 rows and 4 columns.
Aggregator did 1 substitutions.
All rows and columns eliminated.
Presolve time = 0.00 sec. (0.00 ticks)

Dual simplex - Optimal:  Objective =  1.4000000000e+01
Solution time =    0.00 sec.  Iterations = 0 (0)
Deterministic time = 0.00 ticks  (3.42 ticks/sec)


Variable Name           Solution Value
x1                            6.000000
x2                            8.000000
x5                            6.000000
All other variables matching '*' are 0.
